100
100 51
42 90
48 176
85 8
90 181
15 112
45 63
48 56
3 81
34 54
67 187
42 187
23 223
45 107
51 16
84 145
8 60
75 64
39 236
28 60
1 41
62 58
71 81
96 38
98 58
20 52
81 103
19 57
50 152
91 202
25 135
58 165
26 240
41 127
62 112
85 125
45 98
73 215
39 134
44 58
87 51
4 142
3 174
63 231
85 188
40 191
5 164
14 212
68 8
52 109
40 181
9 131
42 25
2 190
76 149
52 158
87 164
12 107
52 219
100 191
33 32
49 210
62 63
29 54
16 139
49 148
55 147
63 38
79 54
4 151
96 135
25 72
50 84
67 85
33 163
32 39
1 190
96 11
22 178
65 83
59 194
67 235
37 161
87 206
17 240
20 154
65 20
78 18
31 43
14 179
6 161
39 25
35 30
96 146
91 227
93 131
22 133
34 234
39 152
69 196
